32 32
7 171
14 932
11 814
1 778
12 972
4 857
12 88
21 604
27 12
9 450
29 396
29 2
24 31
19 24
13 409
1 616
2 18
22 221
1 334
21 34
2 84
27 961
14 317
12 320
15 332
20 54
18 208
18 379
31 395
29 365
22 574
27 996
